1 3 100 175474.98
1 3 200 177336.73
1 3 300 175764.08
2 3 100 185846.07
2 3 200 187936.61
2 3 300 189733.95
3 3 100 181918.15
3 3 200 183487.63
3 3 300 180866.42
4 3 100 173657.92
4 3 200 176803.73
4 3 300 175724.06
5 3 100 168491.36
5 3 200 167958.08
5 3 300 168533.65
